# Generated by ConicBenchmarkUtilities.jl
VER
2

OBJSENSE
MIN

VAR
399 1
F 399

INT
47
11
12
13
14
15
16
17
18
19
20
21
22
23
24
25
26
27
28
29
30
31
32
33
34
42
43
44
45
46
47
48
49
50
51
52
53
54
55
56
197
198
199
200
201
202
203
204

CON
1035 1013
L= 1
L= 1
L= 1
L= 1
L= 1
L= 1
L= 1
L= 1
L= 1
L= 1
L= 1
L= 1
L= 1
L= 1
L= 1
L= 1
L= 1
L= 1
L= 1
L= 1
L= 1
L= 1
L= 1
L= 1
L= 1
L= 1
L= 1
L= 1
L= 1
L= 1
L= 1
L= 1
L= 1
L= 1
L= 1
L= 1
L+ 1
L+ 1
L+ 1
L+ 1
L+ 1
L+ 1
L+ 1
L+ 1
L+ 1
L+ 1
L+ 1
L= 1
L= 1
L= 1
L= 1
L= 1
L= 1
L= 1
L= 1
L= 1
L= 1
L= 1
L= 1
L= 1
L= 1
L= 1
L= 1
L= 1
L= 1
L= 1
L= 1
L+ 1
L+ 1
L+ 1
L= 1
L= 1
L= 1
L= 1
L= 1
L= 1
L= 1
L= 1
L= 1
L= 1
L= 1
L= 1
L= 1
L= 1
L= 1
L= 1
L= 1
L= 1
L+ 1
L+ 1
L+ 1
L+ 1
L+ 1
L+ 1
L+ 1
L+ 1
L+ 1
L+ 1
L+ 1
L+ 1
L+ 1
L+ 1
L+ 1
L+ 1
L+ 1
L+ 1
L+ 1
L+ 1
L+ 1
L+ 1
L+ 1
L+ 1
L+ 1
L+ 1
L+ 1
L+ 1
L+ 1
L+ 1
L+ 1
L+ 1
L+ 1
L+ 1
L+ 1
L+ 1
L+ 1
L+ 1
L+ 1
L+ 1
L+ 1
L+ 1
L+ 1
L+ 1
L+ 1
L+ 1
L+ 1
L+ 1
L+ 1
L+ 1
L+ 1
L+ 1
L+ 1
L+ 1
L+ 1
L+ 1
L+ 1
L+ 1
L+ 1
L+ 1
L+ 1
L+ 1
L+ 1
L+ 1
L+ 1
L+ 1
L+ 1
L+ 1
L+ 1
L+ 1
L+ 1
L+ 1
L= 1
L= 1
L= 1
L= 1
L= 1
L= 1
L= 1
L= 1
L= 1
L= 1
L= 1
L= 1
L= 1
L= 1
L= 1
L= 1
L= 1
L= 1
L= 1
L= 1
L= 1
L= 1
L= 1
L= 1
L= 1
L= 1
L= 1
L= 1
L= 1
L= 1
L= 1
L= 1
L= 1
L= 1
L= 1
L= 1
L= 1
L= 1
L= 1
L= 1
L= 1
L= 1
L= 1
L= 1
L= 1
L= 1
L= 1
L= 1
L= 1
L= 1
L= 1
L+ 1
L+ 1
L+ 1
L+ 1
L+ 1
L+ 1
L+ 1
L+ 1
L+ 1
L+ 1
L+ 1
L+ 1
L+ 1
L+ 1
L+ 1
L+ 1
L+ 1
L+ 1
L+ 1
L+ 1
L+ 1
L+ 1
L+ 1
L+ 1
L+ 1
L+ 1
L+ 1
L+ 1
L+ 1
L+ 1
L+ 1
L+ 1
L+ 1
L+ 1
L+ 1
L+ 1
L+ 1
L+ 1
L+ 1
L+ 1
L+ 1
L+ 1
L+ 1
L+ 1
L+ 1
L+ 1
L+ 1
L+ 1
L+ 1
L+ 1
L+ 1
L+ 1
L+ 1
L+ 1
L+ 1
L+ 1
L+ 1
L+ 1
L+ 1
L+ 1
L+ 1
L+ 1
L+ 1
L+ 1
L+ 1
L+ 1
L+ 1
L+ 1
L+ 1
L+ 1
L+ 1
L+ 1
L+ 1
L+ 1
L+ 1
L+ 1
L= 1
L= 1
L= 1
L= 1
L= 1
L= 1
L= 1
L= 1
L+ 1
L+ 1
L+ 1
L+ 1
L+ 1
L+ 1
L+ 1
L+ 1
L+ 1
L+ 1
L+ 1
L+ 1
L+ 1
L+ 1
L+ 1
L+ 1
L+ 1
L+ 1
L+ 1
L+ 1
L+ 1
L+ 1
L+ 1
L+ 1
L+ 1
L+ 1
L+ 1
L+ 1
L+ 1
L+ 1
L+ 1
L+ 1
L= 1
L= 1
L= 1
L= 1
L= 1
L= 1
L= 1
L= 1
L= 1
L= 1
L= 1
L= 1
L= 1
L= 1
L= 1
L= 1
L= 1
L= 1
L= 1
L= 1
L= 1
L= 1
L= 1
L= 1
L= 1
L= 1
L= 1
L= 1
L= 1
L= 1
L= 1
L= 1
L+ 1
L= 1
L= 1
L= 1
L= 1
L= 1
L= 1
L= 1
L= 1
L= 1
L= 1
L= 1
L= 1
L= 1
L= 1
L= 1
L= 1
L= 1
L= 1
L= 1
L= 1
L= 1
L= 1
EXP 3
L+ 1
L+ 1
L= 1
L= 1
L= 1
L= 1
L+ 1
L+ 1
L+ 1
L+ 1
EXP 3
L+ 1
L+ 1
L= 1
L= 1
L= 1
L= 1
L+ 1
L+ 1
L+ 1
L+ 1
L= 1
L= 1
L= 1
L= 1
L= 1
L+ 1
L+ 1
L+ 1
L+ 1
EXP 3
L+ 1
L+ 1
L= 1
L= 1
L= 1
L= 1
L+ 1
L+ 1
L+ 1
L+ 1
L= 1
L= 1
L= 1
L= 1
L= 1
L= 1
L= 1
L= 1
L+ 1
L+ 1
L+ 1
L+ 1
L+ 1
L+ 1
EXP 3
L+ 1
L+ 1
L= 1
L= 1
L= 1
L= 1
L+ 1
L+ 1
L+ 1
L+ 1
EXP 3
L+ 1
L+ 1
L= 1
L= 1
L= 1
L= 1
L+ 1
L+ 1
L+ 1
L+ 1
EXP 3
L+ 1
L+ 1
L= 1
L= 1
L= 1
L= 1
L+ 1
L+ 1
L+ 1
L+ 1
L= 1
L= 1
L= 1
L= 1
L= 1
L+ 1
L+ 1
L+ 1
L+ 1
L= 1
L= 1
L= 1
L= 1
L= 1
L+ 1
L+ 1
L+ 1
L+ 1
EXP 3
L+ 1
L+ 1
L= 1
L= 1
L= 1
L= 1
L+ 1
L+ 1
L+ 1
L+ 1
L= 1
L= 1
L= 1
L= 1
L= 1
L= 1
L= 1
L= 1
L+ 1
L+ 1
L+ 1
L+ 1
L+ 1
L+ 1
EXP 3
L+ 1
L+ 1
L= 1
L= 1
L= 1
L= 1
L+ 1
L+ 1
L+ 1
L+ 1
EXP 3
L+ 1
L+ 1
L= 1
L= 1
L= 1
L= 1
L+ 1
L+ 1
L+ 1
L+ 1
EXP 3
L+ 1
L+ 1
EXP 3
L+ 1
L+ 1
L= 1
L= 1
L= 1
L= 1
L= 1
L= 1
L+ 1
L+ 1
L+ 1
L+ 1
L+ 1
L+ 1
L= 1
L+ 1
L+ 1
L+ 1
L+ 1
L+ 1
L+ 1
L+ 1
L+ 1
L+ 1
L+ 1
L+ 1
L+ 1
L+ 1
L+ 1
L+ 1
L+ 1
L+ 1
L+ 1
L+ 1
L+ 1
L+ 1
L+ 1
L+ 1
L+ 1
L+ 1
L+ 1
L+ 1
L+ 1
L+ 1
L+ 1
L+ 1
L+ 1
L+ 1
L+ 1
L+ 1
L+ 1
L+ 1
L+ 1
L+ 1
L+ 1
L+ 1
L+ 1
L+ 1
L+ 1
L+ 1
L+ 1
L+ 1
L+ 1
L+ 1
L+ 1
L+ 1
L+ 1
L+ 1
L+ 1
L+ 1
L+ 1
L+ 1
L+ 1
L+ 1
L+ 1
L+ 1
L+ 1
L+ 1
L+ 1
L+ 1
L+ 1
L+ 1
L+ 1
L+ 1
L+ 1
L+ 1
L+ 1
L+ 1
L+ 1
L+ 1
L+ 1
L+ 1
L+ 1
L+ 1
L+ 1
L+ 1
L+ 1
L+ 1
L+ 1
L+ 1
L+ 1
L+ 1
L+ 1
L+ 1
L+ 1
L+ 1
L+ 1
L+ 1
L+ 1
L+ 1
L+ 1
L+ 1
L+ 1
L+ 1
L+ 1
L+ 1
L+ 1
L+ 1
L+ 1
L+ 1
L+ 1
L+ 1
L+ 1
L+ 1
L+ 1
L+ 1
L+ 1
L+ 1
L+ 1
L+ 1
L+ 1
L+ 1
L+ 1
L+ 1
L+ 1
L+ 1
L+ 1
L+ 1
L+ 1
L+ 1
L+ 1
L+ 1
L+ 1
L+ 1
L+ 1
L+ 1
L+ 1
L+ 1
L+ 1
L+ 1
L+ 1
L+ 1
L+ 1
L+ 1
L+ 1
L+ 1
L+ 1
L+ 1
L+ 1
L+ 1
L+ 1
L+ 1
L+ 1
L+ 1
L+ 1
L+ 1
L+ 1
L+ 1
L+ 1
L+ 1
L+ 1
L+ 1
L+ 1
L+ 1
L+ 1
L+ 1
L+ 1
L+ 1
L+ 1
L+ 1
L+ 1
L+ 1
L+ 1
L+ 1
L+ 1
L+ 1
L+ 1
L+ 1
L+ 1
L+ 1
L+ 1
L+ 1
L+ 1
L+ 1
L+ 1
L+ 1
L+ 1
L+ 1
L+ 1
L+ 1
L+ 1
L+ 1
L+ 1
L+ 1
L+ 1
L+ 1
L+ 1
L+ 1
L+ 1
L+ 1
L+ 1
L+ 1
L+ 1
L+ 1
L+ 1
L+ 1
L+ 1
L+ 1
L+ 1
L+ 1
L+ 1
L+ 1
L+ 1
L+ 1
L+ 1
L+ 1
L+ 1
L+ 1
L+ 1
L+ 1
L+ 1
L+ 1
L+ 1
L+ 1
L+ 1
L+ 1
L+ 1
L+ 1
L+ 1
L+ 1
L+ 1
L+ 1
L+ 1
L+ 1
L+ 1
L+ 1
L+ 1
L+ 1
L+ 1
L+ 1
L+ 1
L+ 1
L+ 1
L+ 1
L+ 1
L+ 1
L+ 1
L+ 1
L+ 1
L+ 1
L+ 1
L+ 1
L+ 1
L+ 1
L+ 1
L+ 1
L+ 1
L+ 1
L+ 1
L+ 1
L+ 1
L+ 1
L+ 1
L+ 1
L+ 1
L+ 1
L+ 1
L+ 1
L+ 1
L+ 1
L+ 1
L+ 1
L+ 1
L+ 1
L+ 1
L+ 1
L+ 1
L+ 1
L+ 1
L+ 1
L+ 1
L+ 1
L+ 1
L+ 1
L+ 1
L+ 1
L+ 1
L+ 1
L+ 1
L+ 1
L+ 1
L+ 1
L+ 1
L+ 1
L+ 1
L+ 1
L+ 1
L+ 1
L+ 1
L+ 1
L+ 1
L+ 1
L+ 1
L+ 1
L+ 1
L+ 1
L+ 1
L+ 1
L+ 1
L+ 1
L+ 1
L+ 1
L+ 1
L+ 1
L+ 1
L+ 1
L+ 1
L+ 1
L+ 1
L+ 1
L+ 1
L+ 1
L+ 1
L+ 1
L+ 1
L+ 1
L+ 1
L+ 1
L+ 1
L+ 1
L+ 1
L+ 1
L+ 1
L+ 1
L+ 1
L+ 1
L+ 1
L+ 1
L+ 1
L+ 1
L+ 1
L+ 1
L+ 1
L+ 1
L+ 1
L+ 1
L+ 1
L+ 1
L+ 1
L+ 1
L+ 1
L+ 1
L+ 1
L+ 1
L+ 1
L+ 1
L+ 1
L+ 1
L+ 1
L+ 1
L+ 1
L+ 1
L+ 1
L+ 1
L+ 1
L+ 1
L+ 1
L+ 1
L+ 1
L+ 1
L+ 1
L+ 1
L+ 1
L+ 1
L+ 1
L+ 1
L+ 1
L+ 1
L+ 1
L+ 1
L+ 1
L+ 1
L+ 1
L+ 1
L+ 1
L+ 1
L+ 1
L+ 1
L+ 1
L+ 1
L+ 1
L+ 1
L+ 1
L+ 1
L+ 1
L+ 1
L+ 1
L+ 1
L+ 1
L+ 1
L+ 1
L+ 1
L+ 1
L+ 1
L+ 1
L+ 1
L+ 1
L+ 1
L+ 1
L+ 1
L+ 1
L+ 1
L+ 1
L+ 1
L+ 1
L+ 1
L+ 1
L+ 1
L+ 1
L+ 1
L+ 1
L+ 1
L+ 1
L+ 1
L+ 1
L+ 1
L+ 1
L+ 1
L+ 1
L+ 1
L+ 1
L+ 1
L+ 1
L+ 1
L+ 1
L+ 1
L+ 1
L+ 1
L+ 1
L+ 1
L+ 1
L+ 1
L+ 1
L+ 1
L+ 1
L+ 1
L+ 1
L+ 1
L+ 1
L+ 1
L+ 1
L+ 1
L+ 1
L+ 1
L+ 1
L+ 1
L+ 1
L+ 1
L+ 1
L+ 1
L+ 1
L+ 1
L+ 1

OBJACOORD
1
57 -1.0

ACOORD
1832
0 0 -4.0
1 0 1.0
42 0 -1.0
47 0 1.0
359 0 -4.0
597 0 1.0
0 1 -8.0
6 1 1.0
43 1 -1.0
49 1 1.0
359 1 -8.0
602 1 1.0
0 2 -5.0
10 2 1.0
44 2 -1.0
51 2 1.0
359 2 -5.0
606 2 1.0
0 3 -8.0
22 3 1.0
45 3 -1.0
55 3 1.0
359 3 -8.0
618 3 1.0
0 4 23.0
26 4 1.0
36 4 1.0
56 4 -1.0
622 4 1.0
0 5 19.0
28 5 1.0
37 5 1.0
57 5 -1.0
624 5 1.0
0 6 -10.0
29 6 1.0
46 6 -1.0
58 6 1.0
359 6 -10.0
625 6 1.0
0 7 2.0
32 7 1.0
38 7 1.0
368 7 -1.0
628 7 1.0
0 8 3.0
33 8 1.0
39 8 1.0
369 8 -1.0
629 8 1.0
0 9 5.0
34 9 1.0
40 9 1.0
370 9 -1.0
630 9 1.0
0 10 4.0
35 10 1.0
41 10 1.0
371 10 -1.0
631 10 1.0
0 11 -6.0
89 11 148.75
129 11 175.0
212 11 35.0
256 11 10.0
296 11 6.0
328 11 -6.0
360 11 1.0
833 11 1.0
834 11 -1.0
0 12 -40.0
90 12 148.75
130 12 175.0
213 12 35.0
257 12 50.0
297 12 40.0
329 12 -40.0
360 12 1.0
835 12 1.0
836 12 -1.0
0 13 -46.0
91 13 148.75
131 13 175.0
214 13 35.0
258 13 50.0
298 13 46.0
330 13 -46.0
360 13 1.0
837 13 1.0
838 13 -1.0
0 14 -7.0
93 14 254.045833333333
133 14 175.0
216 14 35.0
220 14 61.0
260 14 40.0
300 14 7.0
332 14 -7.0
361 14 1.0
841 14 1.0
842 14 -1.0
0 15 -30.0
94 15 254.045833333333
134 15 175.0
217 15 35.0
221 15 61.0
261 15 60.0
301 15 30.0
333 15 -30.0
361 15 1.0
843 15 1.0
844 15 -1.0
0 16 -37.0
95 16 254.045833333333
135 16 175.0
218 16 35.0
222 16 61.0
262 16 60.0
302 16 37.0
334 16 -37.0
361 16 1.0
845 16 1.0
846 16 -1.0
0 17 -7.0
97 17 20.4166666666667
101 17 20.4166666666667
137 17 20.8333333333333
224 17 25.0
264 17 15.0
304 17 7.0
336 17 -7.0
362 17 1.0
849 17 1.0
850 17 -1.0
0 18 -15.0
98 18 20.4166666666667
102 18 20.4166666666667
138 18 20.8333333333333
225 18 25.0
265 18 25.0
305 18 15.0
337 18 -15.0
362 18 1.0
851 18 1.0
852 18 -1.0
0 19 -22.0
99 19 20.4166666666667
103 19 20.4166666666667
139 19 20.8333333333333
226 19 25.0
266 19 25.0
306 19 22.0
338 19 -22.0
362 19 1.0
853 19 1.0
854 19 -1.0
0 20 -11.0
105 20 18.75
141 20 20.8333333333333
228 20 25.0
268 20 15.0
308 20 11.0
340 20 -11.0
363 20 1.0
857 20 1.0
858 20 -1.0
0 21 -13.0
106 21 18.75
142 21 20.8333333333333
229 21 25.0
269 21 20.0
309 21 13.0
341 21 -13.0
363 21 1.0
859 21 1.0
860 21 -1.0
0 22 -24.0
107 22 18.75
143 22 20.8333333333333
230 22 25.0
270 22 20.0
310 22 24.0
342 22 -24.0
363 22 1.0
861 22 1.0
862 22 -1.0
0 23 -10.0
109 23 17.8125
113 23 17.8125
145 23 18.75
232 23 25.0
272 23 10.0
312 23 10.0
344 23 -10.0
364 23 1.0
865 23 1.0
866 23 -1.0
0 24 -13.0
110 24 17.8125
114 24 17.8125
146 24 18.75
233 24 25.0
273 24 20.0
313 24 13.0
345 24 -13.0
364 24 1.0
867 24 1.0
868 24 -1.0
0 25 -23.0
111 25 17.8125
115 25 17.8125
147 25 18.75
234 25 25.0
274 25 20.0
314 25 23.0
346 25 -23.0
364 25 1.0
869 25 1.0
870 25 -1.0
0 26 -9.0
117 26 66.9375
149 26 18.75
236 26 25.0
240 26 24.0
276 26 20.0
316 26 9.0
348 26 -9.0
365 26 1.0
873 26 1.0
874 26 -1.0
0 27 -30.0
118 27 66.9375
150 27 18.75
237 27 25.0
241 27 24.0
277 27 55.0
317 27 30.0
349 27 -30.0
365 27 1.0
875 27 1.0
876 27 -1.0
0 28 -39.0
119 28 66.9375
151 28 18.75
238 28 25.0
242 28 24.0
278 28 55.0
318 28 39.0
350 28 -39.0
365 28 1.0
877 28 1.0
878 28 -1.0
0 29 -8.0
121 29 94.4571428571429
153 29 60.0
244 29 24.0
248 29 30.0
280 29 25.0
320 29 8.0
352 29 -8.0
366 29 1.0
881 29 1.0
882 29 -1.0
0 30 -20.0
122 30 94.4571428571429
154 30 60.0
245 30 24.0
249 30 30.0
281 30 50.0
321 30 20.0
353 30 -20.0
366 30 1.0
883 30 1.0
884 30 -1.0
0 31 -28.0
123 31 94.4571428571429
155 31 60.0
246 31 24.0
250 31 30.0
282 31 50.0
322 31 28.0
354 31 -28.0
366 31 1.0
885 31 1.0
886 31 -1.0
0 32 -8.0
125 32 39.4285714285714
157 32 42.8571428571429
252 32 30.0
284 32 15.0
324 32 8.0
356 32 -8.0
367 32 1.0
889 32 1.0
890 32 -1.0
0 33 -15.0
126 33 39.4285714285714
158 33 42.8571428571429
253 33 30.0
285 33 35.0
325 33 15.0
357 33 -15.0
367 33 1.0
891 33 1.0
892 33 -1.0
0 34 -23.0
127 34 39.4285714285714
159 34 42.8571428571429
254 34 30.0
286 34 35.0
326 34 23.0
358 34 -23.0
367 34 1.0
893 34 1.0
894 34 -1.0
0 35 5.0
374 35 -1.0
902 35 1.0
0 36 500.0
380 36 1.0
496 36 1.0
921 36 1.0
0 37 350.0
381 37 1.0
509 37 1.0
922 37 1.0
0 38 200.0
521 38 1.0
935 38 1.0
0 39 250.0
536 39 1.0
936 39 1.0
0 40 200.0
549 40 1.0
937 40 1.0
0 41 200.0
569 41 1.0
938 41 1.0
0 42 -5.0
382 42 1.0
383 42 1.0
385 42 1.0
391 42 10.0
392 42 -10.0
393 42 2.39789527279837
394 42 -2.39789527279837
576 42 1.0
584 42 1.0
585 42 1.0
586 42 1.0
1005 42 1.0
1006 42 -1.0
0 43 -8.0
395 43 1.0
396 43 1.0
398 43 1.0
404 43 10.0
405 43 -10.0
406 43 2.87747432735804
407 43 -2.87747432735804
576 43 1.0
584 43 1.0
585 43 1.0
586 43 1.0
1007 43 1.0
1008 43 -1.0
0 44 -6.0
413 44 2.87747432735804
414 44 -2.87747432735804
415 44 2.15810574551853
416 44 -2.15810574551853
577 44 -1.0
584 44 -1.0
587 44 1.0
588 44 1.0
1009 44 1.0
1010 44 -1.0
0 45 -10.0
417 45 1.0
418 45 1.0
420 45 1.0
426 45 2.87747432735804
427 45 -2.87747432735804
428 45 2.03277599268042
429 45 -2.03277599268042
580 45 -1.0
585 45 -1.0
589 45 1.0
1011 45 1.0
1012 45 -1.0
0 46 -6.0
438 46 2.87747432735804
439 46 -2.87747432735804
440 46 7.0
441 46 -7.0
442 46 3.5
443 46 -3.5
582 46 -1.0
586 46 -1.0
590 46 1.0
591 46 1.0
592 46 1.0
1013 46 1.0
1014 46 -1.0
0 47 -7.0
444 47 1.0
445 47 1.0
447 47 1.0
453 47 2.15810574551853
454 47 -2.15810574551853
455 47 1.43746550029693
456 47 -1.43746550029693
577 47 1.0
578 47 -1.0
587 47 -1.0
593 47 1.0
1015 47 1.0
1016 47 -1.0
0 48 -4.0
457 48 1.0
458 48 1.0
460 48 1.0
466 48 2.15810574551853
467 48 -2.15810574551853
468 48 1.03497516021379
469 48 -1.03497516021379
577 48 1.0
579 48 -1.0
588 48 -1.0
594 48 1.0
1017 48 1.0
1018 48 -1.0
0 49 -5.0
470 49 1.0
471 49 1.0
473 49 1.0
479 49 2.03277599268042
480 49 -2.03277599268042
481 49 1.10947836929589
482 49 -1.10947836929589
580 49 1.0
581 49 -1.0
589 49 -1.0
595 49 1.0
596 49 1.0
1019 49 1.0
1020 49 -1.0
0 50 -2.0
488 50 3.5
489 50 -3.5
490 50 3.15
491 50 -3.15
582 50 1.0
583 50 -1.0
590 50 -1.0
1021 50 1.0
1022 50 -1.0
0 51 -4.0
497 51 3.5
498 51 -3.5
499 51 2.1
500 51 -2.1
582 51 1.0
591 51 -1.0
1023 51 1.0
1024 51 -1.0
0 52 -3.0
501 52 1.0
502 52 1.0
504 52 1.0
510 52 3.5
511 52 -3.5
512 52 1.6544851364539
513 52 -1.6544851364539
582 52 1.0
592 52 -1.0
1025 52 1.0
1026 52 -1.0
0 53 -7.0
522 53 1.43746550029693
523 53 -1.43746550029693
524 53 5.0
525 53 -5.0
526 53 5.0
527 53 -5.0
578 53 1.0
593 53 -1.0
1027 53 1.0
1028 53 -1.0
0 54 -3.0
528 54 1.0
529 54 1.0
531 54 1.0
537 54 1.03497516021379
538 54 -1.03497516021379
539 54 0.710483612536911
540 54 -0.710483612536911
579 54 1.0
594 54 -1.0
1029 54 1.0
1030 54 -1.0
0 55 -2.0
541 55 1.0
542 55 1.0
544 55 1.0
550 55 1.10947836929589
551 55 -1.10947836929589
552 55 0.522508489006913
553 55 -0.522508489006913
581 55 1.0
595 55 -1.0
1031 55 1.0
1032 55 -1.0
0 56 -4.0
554 56 1.0
555 56 1.0
557 56 1.0
559 56 1.0
560 56 1.0
562 56 1.0
570 56 1.10947836929589
571 56 -1.10947836929589
572 56 8.15
573 56 -8.15
574 56 1.43894002153683
575 56 -1.43894002153683
581 56 1.0
583 56 1.0
596 56 -1.0
1033 56 1.0
1034 56 -1.0
0 57 -1.0
1 58 -0.2
632 58 1.0
2 59 1.0
47 59 -1.0
59 59 1.0
200 59 1.0
598 59 1.0
2 60 -0.2
71 60 1.0
633 60 1.0
3 61 1.0
47 61 -1.0
60 61 1.0
201 61 1.0
599 61 1.0
3 62 -0.2
67 62 -1.0
73 62 1.0
634 62 1.0
4 63 1.0
48 63 1.0
59 63 -1.0
600 63 1.0
4 64 -0.2
70 64 1.0
635 64 1.0
5 65 1.0
48 65 -1.0
368 65 1.0
601 65 1.0
5 66 -0.2
636 66 1.0
6 67 -0.5
637 67 1.0
7 68 1.0
49 68 -1.0
60 68 1.0
202 68 1.0
603 68 1.0
7 69 -0.5
67 69 1.0
638 69 1.0
8 70 1.0
50 70 1.0
60 70 -1.0
604 70 1.0
8 71 -0.7
72 71 1.0
639 71 1.0
9 72 1.0
50 72 -1.0
369 72 1.0
605 72 1.0
9 73 -0.7
640 73 1.0
10 74 -1.2
641 74 1.0
11 75 1.0
51 75 -1.0
61 75 1.0
203 75 1.0
607 75 1.0
11 76 -1.2
76 76 1.0
642 76 1.0
12 77 1.0
49 77 1.0
61 77 -1.0
608 77 1.0
12 78 -0.5
74 78 1.0
643 78 1.0
13 79 1.0
50 79 1.0
61 79 -1.0
609 79 1.0
13 80 -0.7
75 80 1.0
644 80 1.0
14 81 1.0
51 81 -1.0
62 81 1.0
204 81 1.0
610 81 1.0
14 82 -1.2
78 82 1.0
645 82 1.0
15 83 1.0
52 83 1.0
62 83 -1.0
611 83 1.0
15 84 -1.2
77 84 1.0
646 84 1.0
16 85 1.0
52 85 -1.0
64 85 1.0
206 85 1.0
612 85 1.0
16 86 -1.2
68 86 -1.0
83 86 1.0
647 86 1.0
17 87 1.0
52 87 -1.0
63 87 1.0
205 87 1.0
613 87 1.0
17 88 -1.2
81 88 1.0
648 88 1.0
18 89 1.0
53 89 1.0
63 89 -1.0
614 89 1.0
18 90 -0.3
79 90 1.0
649 90 1.0
19 91 1.0
54 91 1.0
63 91 -1.0
615 91 1.0
19 92 -0.9
80 92 1.0
650 92 1.0
20 93 1.0
53 93 -1.0
370 93 1.0
616 93 1.0
20 94 -0.3
651 94 1.0
21 95 1.0
54 95 -1.0
371 95 1.0
617 95 1.0
21 96 -0.9
652 96 1.0
22 97 -0.4
653 97 1.0
23 98 1.0
55 98 -1.0
64 98 1.0
207 98 1.0
619 98 1.0
23 99 -0.4
68 99 1.0
654 99 1.0
24 100 1.0
55 100 -1.0
65 100 1.0
208 100 1.0
620 100 1.0
24 101 -0.4
69 101 -1.0
85 101 1.0
655 101 1.0
25 102 1.0
56 102 1.0
64 102 -1.0
621 102 1.0
25 103 -1.6
82 103 1.0
656 103 1.0
26 104 -1.6
657 104 1.0
27 105 1.0
57 105 1.0
65 105 -1.0
623 105 1.0
27 106 -1.1
84 106 1.0
658 106 1.0
28 107 -1.1
659 107 1.0
29 108 -0.7
660 108 1.0
30 109 1.0
58 109 -1.0
66 109 1.0
210 109 1.0
626 109 1.0
30 110 -0.7
87 110 1.0
661 110 1.0
31 111 1.0
65 111 1.0
66 111 -1.0
209 111 1.0
627 111 1.0
31 112 -0.7
69 112 1.0
86 112 1.0
662 112 1.0
32 113 -0.2
663 113 1.0
33 114 -0.7
664 114 1.0
34 115 -0.3
665 115 1.0
35 116 -0.9
666 116 1.0
59 117 -1.0
667 117 1.0
60 118 -1.0
668 118 1.0
61 119 -1.0
669 119 1.0
62 120 -1.0
670 120 1.0
63 121 -1.0
671 121 1.0
64 122 -1.0
672 122 1.0
65 123 -1.0
673 123 1.0
66 124 -1.0
674 124 1.0
70 125 -1.0
88 125 -1.0
160 125 1.0
735 125 1.0
70 126 -1.0
89 126 -1.0
161 126 1.0
736 126 1.0
70 127 -1.0
90 127 -1.0
162 127 1.0
737 127 1.0
70 128 -1.0
91 128 -1.0
163 128 1.0
738 128 1.0
71 129 -1.0
128 129 -1.0
160 129 -0.8
727 129 1.0
71 130 -1.0
129 130 -1.0
161 130 -0.85
728 130 1.0
71 131 -1.0
130 131 -1.0
162 131 -0.8
729 131 1.0
71 132 -1.0
131 132 -1.0
163 132 -0.85
730 132 1.0
72 133 -1.0
92 133 -1.0
164 133 1.0
739 133 1.0
72 134 -1.0
93 134 -1.0
165 134 1.0
740 134 1.0
72 135 -1.0
94 135 -1.0
166 135 1.0
741 135 1.0
72 136 -1.0
95 136 -1.0
167 136 1.0
742 136 1.0
73 137 -1.0
132 137 -1.0
164 137 -0.9
731 137 1.0
73 138 -1.0
133 138 -1.0
165 138 -0.95
732 138 1.0
73 139 -1.0
134 139 -1.0
166 139 -0.9
733 139 1.0
73 140 -1.0
135 140 -1.0
167 140 -0.95
734 140 1.0
74 141 -1.0
96 141 -1.0
168 141 1.0
747 141 1.0
74 142 -1.0
97 142 -1.0
169 142 1.0
748 142 1.0
74 143 -1.0
98 143 -1.0
170 143 1.0
749 143 1.0
74 144 -1.0
99 144 -1.0
171 144 1.0
750 144 1.0
75 145 -1.0
100 145 -1.0
172 145 1.0
751 145 1.0
75 146 -1.0
101 146 -1.0
173 146 1.0
752 146 1.0
75 147 -1.0
102 147 -1.0
174 147 1.0
753 147 1.0
75 148 -1.0
103 148 -1.0
175 148 1.0
754 148 1.0
76 149 -1.0
136 149 -1.0
168 149 -0.85
172 149 -0.85
743 149 1.0
76 150 -1.0
137 150 -1.0
169 150 -0.98
173 150 -0.98
744 150 1.0
76 151 -1.0
138 151 -1.0
170 151 -0.85
174 151 -0.85
745 151 1.0
76 152 -1.0
139 152 -1.0
171 152 -0.98
175 152 -0.98
746 152 1.0
77 153 -1.0
104 153 -1.0
176 153 1.0
759 153 1.0
77 154 -1.0
105 154 -1.0
177 154 1.0
760 154 1.0
77 155 -1.0
106 155 -1.0
178 155 1.0
761 155 1.0
77 156 -1.0
107 156 -1.0
179 156 1.0
762 156 1.0
78 157 -1.0
140 157 -1.0
176 157 -0.85
755 157 1.0
78 158 -1.0
141 158 -1.0
177 158 -0.9
756 158 1.0
78 159 -1.0
142 159 -1.0
178 159 -0.85
757 159 1.0
78 160 -1.0
143 160 -1.0
179 160 -0.9
758 160 1.0
79 161 -1.0
108 161 -1.0
180 161 1.0
771 161 1.0
79 162 -1.0
109 162 -1.0
181 162 1.0
772 162 1.0
79 163 -1.0
110 163 -1.0
182 163 1.0
773 163 1.0
79 164 -1.0
111 164 -1.0
183 164 1.0
774 164 1.0
80 165 -1.0
112 165 -1.0
184 165 1.0
775 165 1.0
80 166 -1.0
113 166 -1.0
185 166 1.0
776 166 1.0
80 167 -1.0
114 167 -1.0
186 167 1.0
777 167 1.0
80 168 -1.0
115 168 -1.0
187 168 1.0
778 168 1.0
81 169 -1.0
144 169 -1.0
180 169 -0.75
184 169 -0.75
767 169 1.0
81 170 -1.0
145 170 -1.0
181 170 -0.95
185 170 -0.95
768 170 1.0
81 171 -1.0
146 171 -1.0
182 171 -0.9
186 171 -0.9
769 171 1.0
81 172 -1.0
147 172 -1.0
183 172 -0.95
187 172 -0.95
770 172 1.0
82 173 -1.0
116 173 -1.0
188 173 1.0
783 173 1.0
82 174 -1.0
117 174 -1.0
189 174 1.0
784 174 1.0
82 175 -1.0
118 175 -1.0
190 175 1.0
785 175 1.0
82 176 -1.0
119 176 -1.0
191 176 1.0
786 176 1.0
83 177 -1.0
148 177 -1.0
188 177 -0.8
763 177 1.0
83 178 -1.0
149 178 -1.0
189 178 -0.85
764 178 1.0
83 179 -1.0
150 179 -1.0
190 179 -0.8
765 179 1.0
83 180 -1.0
151 180 -1.0
191 180 -0.85
766 180 1.0
84 181 -1.0
120 181 -1.0
192 181 1.0
787 181 1.0
84 182 -1.0
121 182 -1.0
193 182 1.0
788 182 1.0
84 183 -1.0
122 183 -1.0
194 183 1.0
789 183 1.0
84 184 -1.0
123 184 -1.0
195 184 1.0
790 184 1.0
85 185 -1.0
152 185 -1.0
192 185 -0.85
779 185 1.0
85 186 -1.0
153 186 -1.0
193 186 -0.95
780 186 1.0
85 187 -1.0
154 187 -1.0
194 187 -0.85
781 187 1.0
85 188 -1.0
155 188 -1.0
195 188 -0.95
782 188 1.0
86 189 -1.0
124 189 -1.0
196 189 1.0
795 189 1.0
86 190 -1.0
125 190 -1.0
197 190 1.0
796 190 1.0
86 191 -1.0
126 191 -1.0
198 191 1.0
797 191 1.0
86 192 -1.0
127 192 -1.0
199 192 1.0
798 192 1.0
87 193 -1.0
156 193 -1.0
196 193 -0.8
791 193 1.0
87 194 -1.0
157 194 -1.0
197 194 -0.92
792 194 1.0
87 195 -1.0
158 195 -1.0
198 195 -0.8
793 195 1.0
87 196 -1.0
159 196 -1.0
199 196 -0.92
794 196 1.0
88 197 148.75
128 197 175.0
211 197 35.0
255 197 10.0
360 197 1.0
831 197 1.0
832 197 -1.0
92 198 254.045833333333
132 198 175.0
215 198 35.0
219 198 61.0
259 198 40.0
361 198 1.0
839 198 1.0
840 198 -1.0
96 199 20.4166666666667
100 199 20.4166666666667
136 199 20.8333333333333
223 199 25.0
263 199 15.0
362 199 1.0
847 199 1.0
848 199 -1.0
104 200 18.75
140 200 20.8333333333333
227 200 25.0
267 200 15.0
363 200 1.0
855 200 1.0
856 200 -1.0
108 201 17.8125
112 201 17.8125
144 201 18.75
231 201 25.0
271 201 10.0
364 201 1.0
863 201 1.0
864 201 -1.0
116 202 66.9375
148 202 18.75
235 202 25.0
239 202 24.0
275 202 20.0
365 202 1.0
871 202 1.0
872 202 -1.0
120 203 94.4571428571429
152 203 60.0
243 203 24.0
247 203 30.0
279 203 25.0
366 203 1.0
879 203 1.0
880 203 -1.0
124 204 39.4285714285714
156 204 42.8571428571429
251 204 30.0
283 204 15.0
367 204 1.0
887 204 1.0
888 204 -1.0
200 205 -1.0
211 205 -1.0
255 205 -1.0
683 205 1.0
200 206 -1.0
212 206 -1.0
256 206 -1.0
684 206 1.0
200 207 -1.0
213 207 -1.0
257 207 -1.0
685 207 1.0
200 208 -1.0
214 208 -1.0
258 208 -1.0
686 208 1.0
201 209 -1.0
215 209 -1.0
259 209 -1.0
687 209 1.0
201 210 -1.0
216 210 -1.0
260 210 -1.0
688 210 1.0
201 211 -1.0
217 211 -1.0
261 211 -1.0
689 211 1.0
201 212 -1.0
218 212 -1.0
262 212 -1.0
690 212 1.0
202 213 -1.0
219 213 -1.0
259 213 -1.0
691 213 1.0
202 214 -1.0
220 214 -1.0
260 214 -1.0
692 214 1.0
202 215 -1.0
221 215 -1.0
261 215 -1.0
693 215 1.0
202 216 -1.0
222 216 -1.0
262 216 -1.0
694 216 1.0
203 217 -1.0
223 217 -1.0
263 217 -1.0
695 217 1.0
203 218 -1.0
224 218 -1.0
264 218 -1.0
696 218 1.0
203 219 -1.0
225 219 -1.0
265 219 -1.0
697 219 1.0
203 220 -1.0
226 220 -1.0
266 220 -1.0
698 220 1.0
204 221 -1.0
227 221 -1.0
267 221 -1.0
699 221 1.0
204 222 -1.0
228 222 -1.0
268 222 -1.0
700 222 1.0
204 223 -1.0
229 223 -1.0
269 223 -1.0
701 223 1.0
204 224 -1.0
230 224 -1.0
270 224 -1.0
702 224 1.0
205 225 -1.0
231 225 -1.0
271 225 -1.0
707 225 1.0
205 226 -1.0
232 226 -1.0
272 226 -1.0
708 226 1.0
205 227 -1.0
233 227 -1.0
273 227 -1.0
709 227 1.0
205 228 -1.0
234 228 -1.0
274 228 -1.0
710 228 1.0
206 229 -1.0
235 229 -1.0
275 229 -1.0
703 229 1.0
206 230 -1.0
236 230 -1.0
276 230 -1.0
704 230 1.0
206 231 -1.0
237 231 -1.0
277 231 -1.0
705 231 1.0
206 232 -1.0
238 232 -1.0
278 232 -1.0
706 232 1.0
207 233 -1.0
239 233 -1.0
275 233 -1.0
711 233 1.0
207 234 -1.0
240 234 -1.0
276 234 -1.0
712 234 1.0
207 235 -1.0
241 235 -1.0
277 235 -1.0
713 235 1.0
207 236 -1.0
242 236 -1.0
278 236 -1.0
714 236 1.0
208 237 -1.0
243 237 -1.0
279 237 -1.0
715 237 1.0
208 238 -1.0
244 238 -1.0
280 238 -1.0
716 238 1.0
208 239 -1.0
245 239 -1.0
281 239 -1.0
717 239 1.0
208 240 -1.0
246 240 -1.0
282 240 -1.0
718 240 1.0
209 241 -1.0
247 241 -1.0
279 241 -1.0
723 241 1.0
209 242 -1.0
248 242 -1.0
280 242 -1.0
724 242 1.0
209 243 -1.0
249 243 -1.0
281 243 -1.0
725 243 1.0
209 244 -1.0
250 244 -1.0
282 244 -1.0
726 244 1.0
210 245 -1.0
251 245 -1.0
283 245 -1.0
719 245 1.0
210 246 -1.0
252 246 -1.0
284 246 -1.0
720 246 1.0
210 247 -1.0
253 247 -1.0
285 247 -1.0
721 247 1.0
210 248 -1.0
254 248 -1.0
286 248 -1.0
722 248 1.0
287 249 1.0
359 249 -1.0
675 249 1.0
287 250 -1.0
295 250 -1.0
327 250 1.0
799 250 1.0
287 251 -1.0
296 251 -1.0
328 251 1.0
800 251 1.0
287 252 -1.0
297 252 -1.0
329 252 1.0
801 252 1.0
287 253 -1.0
298 253 -1.0
330 253 1.0
802 253 1.0
288 254 1.0
359 254 -1.0
676 254 1.0
288 255 -1.0
299 255 -1.0
331 255 1.0
803 255 1.0
288 256 -1.0
300 256 -1.0
332 256 1.0
804 256 1.0
288 257 -1.0
301 257 -1.0
333 257 1.0
805 257 1.0
288 258 -1.0
302 258 -1.0
334 258 1.0
806 258 1.0
289 259 1.0
359 259 -1.0
677 259 1.0
289 260 -1.0
303 260 -1.0
335 260 1.0
807 260 1.0
289 261 -1.0
304 261 -1.0
336 261 1.0
808 261 1.0
289 262 -1.0
305 262 -1.0
337 262 1.0
809 262 1.0
289 263 -1.0
306 263 -1.0
338 263 1.0
810 263 1.0
290 264 1.0
359 264 -1.0
678 264 1.0
290 265 -1.0
307 265 -1.0
339 265 1.0
811 265 1.0
290 266 -1.0
308 266 -1.0
340 266 1.0
812 266 1.0
290 267 -1.0
309 267 -1.0
341 267 1.0
813 267 1.0
290 268 -1.0
310 268 -1.0
342 268 1.0
814 268 1.0
291 269 1.0
359 269 -1.0
679 269 1.0
291 270 -1.0
311 270 -1.0
343 270 1.0
815 270 1.0
291 271 -1.0
312 271 -1.0
344 271 1.0
816 271 1.0
291 272 -1.0
313 272 -1.0
345 272 1.0
817 272 1.0
291 273 -1.0
314 273 -1.0
346 273 1.0
818 273 1.0
292 274 1.0
359 274 -1.0
680 274 1.0
292 275 -1.0
315 275 -1.0
347 275 1.0
819 275 1.0
292 276 -1.0
316 276 -1.0
348 276 1.0
820 276 1.0
292 277 -1.0
317 277 -1.0
349 277 1.0
821 277 1.0
292 278 -1.0
318 278 -1.0
350 278 1.0
822 278 1.0
293 279 1.0
359 279 -1.0
681 279 1.0
293 280 -1.0
319 280 -1.0
351 280 1.0
823 280 1.0
293 281 -1.0
320 281 -1.0
352 281 1.0
824 281 1.0
293 282 -1.0
321 282 -1.0
353 282 1.0
825 282 1.0
293 283 -1.0
322 283 -1.0
354 283 1.0
826 283 1.0
294 284 1.0
359 284 -1.0
682 284 1.0
294 285 -1.0
323 285 -1.0
355 285 1.0
827 285 1.0
294 286 -1.0
324 286 -1.0
356 286 1.0
828 286 1.0
294 287 -1.0
325 287 -1.0
357 287 1.0
829 287 1.0
294 288 -1.0
326 288 -1.0
358 288 1.0
830 288 1.0
368 289 -1.0
372 289 1.0
895 289 1.0
896 289 -1.0
369 290 -1.0
436 290 1.0
907 290 1.0
908 290 -1.0
370 291 -1.0
520 291 1.0
925 291 1.0
926 291 -1.0
371 292 -1.0
379 292 -1.0
927 292 1.0
928 292 -1.0
372 293 -1.0
389 293 1.0
897 293 1.0
372 294 -1.0
402 294 1.0
898 294 1.0
373 295 -1.0
390 295 1.0
899 295 1.0
373 296 -1.0
403 296 1.0
900 296 1.0
373 297 1.0
374 297 1.0
901 297 1.0
374 298 -1.0
375 298 1.0
903 298 1.0
375 299 -1.0
411 299 1.0
904 299 1.0
375 300 -1.0
424 300 1.0
905 300 1.0
375 301 -1.0
435 301 1.0
906 301 1.0
376 302 1.0
412 302 1.0
909 302 1.0
376 303 -1.0
451 303 1.0
912 303 1.0
376 304 -1.0
464 304 1.0
913 304 1.0
377 305 1.0
437 305 1.0
911 305 1.0
377 306 -1.0
486 306 1.0
914 306 1.0
377 307 -1.0
495 307 1.0
915 307 1.0
377 308 -1.0
508 308 1.0
916 308 1.0
378 309 1.0
478 309 1.0
919 309 1.0
378 310 -1.0
548 310 1.0
923 310 1.0
378 311 -1.0
567 311 1.0
924 311 1.0
379 312 -1.0
487 312 1.0
920 312 1.0
379 313 1.0
568 313 1.0
929 313 1.0
380 314 -1.0
930 314 1.0
380 315 -1.0
931 315 1.0
381 316 -1.0
932 316 1.0
381 317 -1.0
933 317 1.0
381 318 -1.0
934 318 1.0
384 319 -1.0
386 319 -1.0
382 320 1.0
385 320 1.0
389 320 -1.0
391 320 -1.0
939 320 1.0
386 321 -1.0
390 321 -1.0
393 321 -1.0
943 321 1.0
387 322 1.0
389 322 -1.0
392 322 -1.0
940 322 1.0
388 323 1.0
390 323 -1.0
394 323 -1.0
944 323 1.0
397 324 -1.0
399 324 -1.2
395 325 1.0
398 325 1.0
402 325 -1.0
404 325 -1.0
941 325 1.0
399 326 -1.0
403 326 -1.0
406 326 -1.0
945 326 1.0
400 327 1.0
402 327 -1.0
405 327 -1.0
942 327 1.0
401 328 1.0
403 328 -1.0
407 328 -1.0
946 328 1.0
408 329 -0.75
411 329 -1.0
413 329 -1.0
947 329 1.0
408 330 1.0
412 330 -1.0
415 330 -1.0
955 330 1.0
409 331 1.0
411 331 -1.0
414 331 -1.0
948 331 1.0
410 332 1.0
412 332 -1.0
416 332 -1.0
956 332 1.0
419 333 -1.0
421 333 -1.5
417 334 1.0
420 334 1.0
424 334 -1.0
426 334 -1.0
949 334 1.0
421 335 -1.0
425 335 -1.0
428 335 -1.0
957 335 1.0
422 336 1.0
424 336 -1.0
427 336 -1.0
950 336 1.0
423 337 1.0
425 337 -1.0
429 337 -1.0
959 337 1.0
425 338 1.0
477 338 1.0
910 338 1.0
430 339 -1.0
435 339 -1.0
438 339 -1.0
951 339 1.0
430 340 1.0
431 340 1.0
437 340 -1.0
442 340 -1.0
961 340 1.0
431 341 -0.5
436 341 -1.0
440 341 -1.0
953 341 1.0
432 342 1.0
435 342 -1.0
439 342 -1.0
952 342 1.0
433 343 1.0
436 343 -1.0
441 343 -1.0
954 343 1.0
434 344 1.0
437 344 -1.0
443 344 -1.0
962 344 1.0
446 345 -1.0
448 345 -1.25
444 346 1.0
447 346 1.0
451 346 -1.0
453 346 -1.0
963 346 1.0
448 347 -1.0
452 347 -1.0
455 347 -1.0
973 347 1.0
449 348 1.0
451 348 -1.0
454 348 -1.0
964 348 1.0
450 349 1.0
452 349 -1.0
456 349 -1.0
975 349 1.0
452 350 1.0
519 350 1.0
917 350 1.0
459 351 -1.0
461 351 -0.9
457 352 1.0
460 352 1.0
464 352 -1.0
466 352 -1.0
965 352 1.0
461 353 -1.0
465 353 -1.0
468 353 -1.0
977 353 1.0
462 354 1.0
464 354 -1.0
467 354 -1.0
966 354 1.0
463 355 1.0
465 355 -1.0
469 355 -1.0
979 355 1.0
465 356 1.0
535 356 1.0
918 356 1.0
472 357 -1.0
474 357 -1.0
470 358 1.0
473 358 1.0
477 358 -1.0
479 358 -1.0
958 358 1.0
474 359 -1.0
478 359 -1.0
481 359 -1.0
981 359 1.0
475 360 1.0
477 360 -1.0
480 360 -1.0
960 360 1.0
476 361 1.0
478 361 -1.0
482 361 -1.0
982 361 1.0
483 362 -0.9
486 362 -1.0
488 362 -1.0
967 362 1.0
483 363 1.0
487 363 -1.0
490 363 -1.0
983 363 1.0
484 364 1.0
486 364 -1.0
489 364 -1.0
968 364 1.0
485 365 1.0
487 365 -1.0
491 365 -1.0
984 365 1.0
492 366 -0.6
495 366 -1.0
497 366 -1.0
969 366 1.0
492 367 1.0
496 367 -1.0
499 367 -1.0
985 367 1.0
493 368 1.0
495 368 -1.0
498 368 -1.0
970 368 1.0
494 369 1.0
496 369 -1.0
500 369 -1.0
986 369 1.0
503 370 -1.0
505 370 -1.1
501 371 1.0
504 371 1.0
508 371 -1.0
510 371 -1.0
971 371 1.0
505 372 -1.0
509 372 -1.0
512 372 -1.0
987 372 1.0
506 373 1.0
508 373 -1.0
511 373 -1.0
972 373 1.0
507 374 1.0
509 374 -1.0
513 374 -1.0
988 374 1.0
514 375 -0.9
519 375 -1.0
522 375 -1.0
974 375 1.0
514 376 1.0
515 376 1.0
521 376 -1.0
526 376 -1.0
997 376 1.0
515 377 -1.0
520 377 -1.0
524 377 -1.0
993 377 1.0
516 378 1.0
519 378 -1.0
523 378 -1.0
976 378 1.0
517 379 1.0
520 379 -1.0
525 379 -1.0
994 379 1.0
518 380 1.0
521 380 -1.0
527 380 -1.0
998 380 1.0
530 381 -1.0
532 381 -1.0
528 382 1.0
531 382 1.0
535 382 -1.0
537 382 -1.0
978 382 1.0
532 383 -1.0
536 383 -1.0
539 383 -1.0
999 383 1.0
533 384 1.0
535 384 -1.0
538 384 -1.0
980 384 1.0
534 385 1.0
536 385 -1.0
540 385 -1.0
1000 385 1.0
543 386 -1.0
545 386 -0.7
541 387 1.0
544 387 1.0
548 387 -1.0
550 387 -1.0
989 387 1.0
545 388 -1.0
549 388 -1.0
552 388 -1.0
1001 388 1.0
546 389 1.0
548 389 -1.0
551 389 -1.0
990 389 1.0
547 390 1.0
549 390 -1.0
553 390 -1.0
1002 390 1.0
556 391 -1.0
558 391 -0.65
554 392 1.0
557 392 1.0
567 392 -1.0
570 392 -1.0
991 392 1.0
558 393 -1.0
563 393 -1.0
569 393 -1.0
574 393 -1.0
1003 393 1.0
561 394 -1.0
563 394 -0.65
559 395 1.0
562 395 1.0
568 395 -1.0
572 395 -1.0
995 395 1.0
564 396 1.0
567 396 -1.0
571 396 -1.0
992 396 1.0
565 397 1.0
568 397 -1.0
573 397 -1.0
996 397 1.0
566 398 1.0
569 398 -1.0
575 398 -1.0
1004 398 1.0

BCOORD
105
36 -0.4
37 -0.3
38 -0.2
39 -0.5
40 -0.2
41 -0.3
42 35.0
43 36.0
44 25.0
45 24.0
46 30.0
359 4000.0
360 -1.0
361 -1.0
362 -1.0
363 -1.0
364 -1.0
365 -1.0
366 -1.0
367 -1.0
392 10.0
394 2.39789527279837
405 10.0
407 2.87747432735804
414 2.87747432735804
416 2.15810574551853
427 2.87747432735804
429 2.03277599268042
439 2.87747432735804
441 7.0
443 3.5
454 2.15810574551853
456 1.43746550029693
467 2.15810574551853
469 1.03497516021379
480 2.03277599268042
482 1.10947836929589
489 3.5
491 3.15
498 3.5
500 2.1
511 3.5
513 1.6544851364539
523 1.43746550029693
525 5.0
527 5.0
538 1.03497516021379
540 0.710483612536911
551 1.10947836929589
553 0.522508489006913
571 1.10947836929589
573 8.15
575 1.43894002153683
576 -1.0
832 1.0
834 1.0
836 1.0
838 1.0
840 1.0
842 1.0
844 1.0
846 1.0
848 1.0
850 1.0
852 1.0
854 1.0
856 1.0
858 1.0
860 1.0
862 1.0
864 1.0
866 1.0
868 1.0
870 1.0
872 1.0
874 1.0
876 1.0
878 1.0
880 1.0
882 1.0
884 1.0
886 1.0
888 1.0
890 1.0
892 1.0
894 1.0
896 10.0
908 7.0
926 5.0
928 5.0
1006 1.0
1008 1.0
1010 1.0
1012 1.0
1014 1.0
1016 1.0
1018 1.0
1020 1.0
1022 1.0
1024 1.0
1026 1.0
1028 1.0
1030 1.0
1032 1.0
1034 1.0
